tsp_instances/TSP50/instance63.tsp
NODE_COORD_SECTION
0 91 176
1 159 181
2 90 65
3 91 108
4 105 125
5 55 1
6 70 112
7 18 137
8 32 80
9 174 129
10 51 26
11 119 162
12 40 2
13 159 67
14 45 196
15 154 61
16 175 179
17 95 173
18 6 18
19 79 192
20 50 152
21 77 68
22 158 114
23 176 188
24 17 67
25 64 6
26 77 91
27 163 169
28 158 48
29 40 105
30 78 71
31 1 174
32 87 55
33 101 192
34 5 19
35 119 103
36 29 152
37 15 11
38 127 80
39 65 100
40 93 86
41 158 27
42 71 58
43 25 12
44 39 0
45 43 1
46 167 35
47 171 200
48 182 10
49 35 153
