tsp_instances/TSP50/instance63.opt.tour
TOUR_SECTION
1
18
12
2
48
24
17
28
10
23
14
16
29
47
49
42
39
36
5
4
7
40
27
41
31
22
3
33
43
11
26
6
46
13
45
44
38
19
35
25
9
30
21
50
37
8
32
15
20
34
-1